c nIsolatedPIs 0
c maxPI 12
p cnf 208 589
c gate 13 2 8 0
2 -13 0
8 -13 0
-2 -8 13 0
c gate 14 4 6 0
4 -14 0
6 -14 0
-4 -6 14 0
c gate 15 3 7 0
3 -15 0
7 -15 0
-3 -7 15 0
c gate 16 -14 -15 0
-14 -16 0
-15 -16 0
14 15 16 0
c gate 17 13 -16 0
13 -17 0
-16 -17 0
-13 16 17 0
c gate 18 3 8 0
3 -18 0
8 -18 0
-3 -8 18 0
c gate 19 3 6 0
3 -19 0
6 -19 0
-3 -6 19 0
c gate 20 4 7 0
4 -20 0
7 -20 0
-4 -7 20 0
c gate 21 -19 20 0
-19 -21 0
20 -21 0
19 -20 21 0
c gate 22 18 -21 0
18 -22 0
-21 -22 0
-18 21 22 0
c gate 23 -18 21 0
-18 -23 0
21 -23 0
18 -21 23 0
c gate 24 -22 -23 0
-22 -24 0
-23 -24 0
22 23 24 0
c gate 25 -17 -24 0
-17 -25 0
-24 -25 0
17 24 25 0
c gate 26 1 7 0
1 -26 0
7 -26 0
-1 -7 26 0
c gate 27 2 6 0
2 -27 0
6 -27 0
-2 -6 27 0
c gate 28 3 5 0
3 -28 0
5 -28 0
-3 -5 28 0
c gate 29 -27 -28 0
-27 -29 0
-28 -29 0
27 28 29 0
c gate 30 26 -29 0
26 -30 0
-29 -30 0
-26 29 30 0
c gate 31 2 7 0
2 -31 0
7 -31 0
-2 -7 31 0
c gate 32 4 5 0
4 -32 0
5 -32 0
-4 -5 32 0
c gate 33 -19 -32 0
-19 -33 0
-32 -33 0
19 32 33 0
c gate 34 -31 33 0
-31 -34 0
33 -34 0
31 -33 34 0
c gate 35 30 -34 0
30 -35 0
-34 -35 0
-30 34 35 0
c gate 36 1 8 0
1 -36 0
8 -36 0
-1 -8 36 0
c gate 37 -30 34 0
-30 -37 0
34 -37 0
30 -34 37 0
c gate 38 -35 -37 0
-35 -38 0
-37 -38 0
35 37 38 0
c gate 39 36 38 0
36 -39 0
38 -39 0
-36 -38 39 0
c gate 40 -35 -39 0
-35 -40 0
-39 -40 0
35 39 40 0
c gate 41 -13 16 0
-13 -41 0
16 -41 0
13 -16 41 0
c gate 42 -17 -41 0
-17 -42 0
-41 -42 0
17 41 42 0
c gate 43 -40 42 0
-40 -43 0
42 -43 0
40 -42 43 0
c gate 44 40 -42 0
40 -44 0
-42 -44 0
-40 42 44 0
c gate 45 -43 -44 0
-43 -45 0
-44 -45 0
43 44 45 0
c gate 46 -36 -38 0
-36 -46 0
-38 -46 0
36 38 46 0
c gate 47 -39 -46 0
-39 -47 0
-46 -47 0
39 46 47 0
c gate 48 12 47 0
12 -48 0
47 -48 0
-12 -47 48 0
c gate 49 -26 29 0
-26 -49 0
29 -49 0
26 -29 49 0
c gate 50 -30 -49 0
-30 -50 0
-49 -50 0
30 49 50 0
c gate 51 11 50 0
11 -51 0
50 -51 0
-11 -50 51 0
c gate 52 2 5 0
2 -52 0
5 -52 0
-2 -5 52 0
c gate 53 1 6 0
1 -53 0
6 -53 0
-1 -6 53 0
c gate 54 -52 -53 0
-52 -54 0
-53 -54 0
52 53 54 0
c gate 55 10 -54 0
10 -55 0
-54 -55 0
-10 54 55 0
c gate 56 1 5 0
1 -56 0
5 -56 0
-1 -5 56 0
c gate 57 9 56 0
9 -57 0
56 -57 0
-9 -56 57 0
c gate 58 -10 54 0
-10 -58 0
54 -58 0
10 -54 58 0
c gate 59 -55 -58 0
-55 -59 0
-58 -59 0
55 58 59 0
c gate 60 57 59 0
57 -60 0
59 -60 0
-57 -59 60 0
c gate 61 -55 -60 0
-55 -61 0
-60 -61 0
55 60 61 0
c gate 62 -11 -50 0
-11 -62 0
-50 -62 0
11 50 62 0
c gate 63 -51 -62 0
-51 -63 0
-62 -63 0
51 62 63 0
c gate 64 -61 63 0
-61 -64 0
63 -64 0
61 -63 64 0
c gate 65 -51 -64 0
-51 -65 0
-64 -65 0
51 64 65 0
c gate 66 -12 -47 0
-12 -66 0
-47 -66 0
12 47 66 0
c gate 67 -48 -66 0
-48 -67 0
-66 -67 0
48 66 67 0
c gate 68 -65 67 0
-65 -68 0
67 -68 0
65 -67 68 0
c gate 69 -48 -68 0
-48 -69 0
-68 -69 0
48 68 69 0
c gate 70 45 -69 0
45 -70 0
-69 -70 0
-45 69 70 0
c gate 71 -43 -70 0
-43 -71 0
-70 -71 0
43 70 71 0
c gate 72 -25 71 0
-25 -72 0
71 -72 0
25 -71 72 0
c gate 73 25 -71 0
25 -73 0
-71 -73 0
-25 71 73 0
c gate 74 -72 -73 0
-72 -74 0
-73 -74 0
72 73 74 0
c gate 75 52 53 0
52 -75 0
53 -75 0
-52 -53 75 0
c gate 76 27 28 0
27 -76 0
28 -76 0
-27 -28 76 0
c gate 77 -26 76 0
-26 -77 0
76 -77 0
26 -76 77 0
c gate 78 -50 -76 0
-50 -78 0
-76 -78 0
50 76 78 0
c gate 79 -77 -78 0
-77 -79 0
-78 -79 0
77 78 79 0
c gate 80 75 79 0
75 -80 0
79 -80 0
-75 -79 80 0
c gate 81 19 32 0
19 -81 0
32 -81 0
-19 -32 81 0
c gate 82 -33 -81 0
-33 -82 0
-81 -82 0
33 81 82 0
c gate 83 -31 -82 0
-31 -83 0
-82 -83 0
31 82 83 0
c gate 84 31 82 0
31 -84 0
82 -84 0
-31 -82 84 0
c gate 85 -83 -84 0
-83 -85 0
-84 -85 0
83 84 85 0
c gate 86 -30 -76 0
-30 -86 0
-76 -86 0
30 76 86 0
c gate 87 85 -86 0
85 -87 0
-86 -87 0
-85 86 87 0
c gate 88 -85 86 0
-85 -88 0
86 -88 0
85 -86 88 0
c gate 89 -87 -88 0
-87 -89 0
-88 -89 0
87 88 89 0
c gate 90 36 89 0
36 -90 0
89 -90 0
-36 -89 90 0
c gate 91 -36 -89 0
-36 -91 0
-89 -91 0
36 89 91 0
c gate 92 -90 -91 0
-90 -92 0
-91 -92 0
90 91 92 0
c gate 93 80 92 0
80 -93 0
92 -93 0
-80 -92 93 0
c gate 94 -87 -90 0
-87 -94 0
-90 -94 0
87 90 94 0
c gate 95 -81 -84 0
-81 -95 0
-84 -95 0
81 84 95 0
c gate 96 14 15 0
14 -96 0
15 -96 0
-14 -15 96 0
c gate 97 -16 -96 0
-16 -97 0
-96 -97 0
16 96 97 0
c gate 98 -95 97 0
-95 -98 0
97 -98 0
95 -97 98 0
c gate 99 95 -97 0
95 -99 0
-97 -99 0
-95 97 99 0
c gate 100 -98 -99 0
-98 -100 0
-99 -100 0
98 99 100 0
c gate 101 -13 -100 0
-13 -101 0
-100 -101 0
13 100 101 0
c gate 102 13 100 0
13 -102 0
100 -102 0
-13 -100 102 0
c gate 103 -101 -102 0
-101 -103 0
-102 -103 0
101 102 103 0
c gate 104 94 -103 0
94 -104 0
-103 -104 0
-94 103 104 0
c gate 105 -94 103 0
-94 -105 0
103 -105 0
94 -103 105 0
c gate 106 -104 -105 0
-104 -106 0
-105 -106 0
104 105 106 0
c gate 107 93 106 0
93 -107 0
106 -107 0
-93 -106 107 0
c gate 108 -93 -106 0
-93 -108 0
-106 -108 0
93 106 108 0
c gate 109 -107 -108 0
-107 -109 0
-108 -109 0
107 108 109 0
c gate 110 -80 -92 0
-80 -110 0
-92 -110 0
80 92 110 0
c gate 111 -93 -110 0
-93 -111 0
-110 -111 0
93 110 111 0
c gate 112 12 111 0
12 -112 0
111 -112 0
-12 -111 112 0
c gate 113 -12 -111 0
-12 -113 0
-111 -113 0
12 111 113 0
c gate 114 -112 -113 0
-112 -114 0
-113 -114 0
112 113 114 0
c gate 115 -75 -79 0
-75 -115 0
-79 -115 0
75 79 115 0
c gate 116 -80 -115 0
-80 -116 0
-115 -116 0
80 115 116 0
c gate 117 11 116 0
11 -117 0
116 -117 0
-11 -116 117 0
c gate 118 -11 -116 0
-11 -118 0
-116 -118 0
11 116 118 0
c gate 119 -57 -59 0
-57 -119 0
-59 -119 0
57 59 119 0
c gate 120 -60 -119 0
-60 -120 0
-119 -120 0
60 119 120 0
c gate 121 75 -120 0
75 -121 0
-120 -121 0
-75 120 121 0
c gate 122 -61 -121 0
-61 -122 0
-121 -122 0
61 121 122 0
c gate 123 -118 122 0
-118 -123 0
122 -123 0
118 -122 123 0
c gate 124 -117 -123 0
-117 -124 0
-123 -124 0
117 123 124 0
c gate 125 114 -124 0
114 -125 0
-124 -125 0
-114 124 125 0
c gate 126 -112 -125 0
-112 -126 0
-125 -126 0
112 125 126 0
c gate 127 109 -126 0
109 -127 0
-126 -127 0
-109 126 127 0
c gate 128 -105 -107 0
-105 -128 0
-107 -128 0
105 107 128 0
c gate 129 -98 -102 0
-98 -129 0
-102 -129 0
98 102 129 0
c gate 130 -24 -129 0
-24 -130 0
-129 -130 0
24 129 130 0
c gate 131 24 129 0
24 -131 0
129 -131 0
-24 -129 131 0
c gate 132 -130 -131 0
-130 -132 0
-131 -132 0
130 131 132 0
c gate 133 -128 132 0
-128 -133 0
132 -133 0
128 -132 133 0
c gate 134 128 -132 0
128 -134 0
-132 -134 0
-128 132 134 0
c gate 135 -133 -134 0
-133 -135 0
-134 -135 0
133 134 135 0
c gate 136 127 135 0
127 -136 0
135 -136 0
-127 -135 136 0
c gate 137 -127 -135 0
-127 -137 0
-135 -137 0
127 135 137 0
c gate 138 -136 -137 0
-136 -138 0
-137 -138 0
136 137 138 0
c gate 139 74 -138 0
74 -139 0
-138 -139 0
-74 138 139 0
c gate 140 -74 138 0
-74 -140 0
138 -140 0
74 -138 140 0
c gate 141 -139 -140 0
-139 -141 0
-140 -141 0
139 140 141 0
c gate 142 -45 69 0
-45 -142 0
69 -142 0
45 -69 142 0
c gate 143 -70 -142 0
-70 -143 0
-142 -143 0
70 142 143 0
c gate 144 -109 126 0
-109 -144 0
126 -144 0
109 -126 144 0
c gate 145 -127 -144 0
-127 -145 0
-144 -145 0
127 144 145 0
c gate 146 143 -145 0
143 -146 0
-145 -146 0
-143 145 146 0
c gate 147 -143 145 0
-143 -147 0
145 -147 0
143 -145 147 0
c gate 148 65 -67 0
65 -148 0
-67 -148 0
-65 67 148 0
c gate 149 -68 -148 0
-68 -149 0
-148 -149 0
68 148 149 0
c gate 150 -114 124 0
-114 -150 0
124 -150 0
114 -124 150 0
c gate 151 -125 -150 0
-125 -151 0
-150 -151 0
125 150 151 0
c gate 152 149 -151 0
149 -152 0
-151 -152 0
-149 151 152 0
c gate 153 -149 151 0
-149 -153 0
151 -153 0
149 -151 153 0
c gate 154 -117 -118 0
-117 -154 0
-118 -154 0
117 118 154 0
c gate 155 -64 -154 0
-64 -155 0
-154 -155 0
64 154 155 0
c gate 156 61 -63 0
61 -156 0
-63 -156 0
-61 63 156 0
c gate 157 -121 -156 0
-121 -157 0
-156 -157 0
121 156 157 0
c gate 158 154 157 0
154 -158 0
157 -158 0
-154 -157 158 0
c gate 159 -155 -158 0
-155 -159 0
-158 -159 0
155 158 159 0
c gate 160 -153 -159 0
-153 -160 0
-159 -160 0
153 159 160 0
c gate 161 -152 -160 0
-152 -161 0
-160 -161 0
152 160 161 0
c gate 162 -147 -161 0
-147 -162 0
-161 -162 0
147 161 162 0
c gate 163 -146 -162 0
-146 -163 0
-162 -163 0
146 162 163 0
c gate 164 -130 -133 0
-130 -164 0
-133 -164 0
130 133 164 0
c gate 165 4 8 0
4 -165 0
8 -165 0
-4 -8 165 0
c gate 166 -15 165 0
-15 -166 0
165 -166 0
15 -165 166 0
c gate 167 -8 96 0
-8 -167 0
96 -167 0
8 -96 167 0
c gate 168 -166 -167 0
-166 -168 0
-167 -168 0
166 167 168 0
c gate 169 -164 -168 0
-164 -169 0
-168 -169 0
164 168 169 0
c gate 170 164 168 0
164 -170 0
168 -170 0
-164 -168 170 0
c gate 171 -169 -170 0
-169 -171 0
-170 -171 0
169 170 171 0
c gate 172 136 171 0
136 -172 0
171 -172 0
-136 -171 172 0
c gate 173 -136 -171 0
-136 -173 0
-171 -173 0
136 171 173 0
c gate 174 -172 -173 0
-172 -174 0
-173 -174 0
172 173 174 0
c gate 175 25 70 0
25 -175 0
70 -175 0
-25 -70 175 0
c gate 176 -17 -43 0
-17 -176 0
-43 -176 0
17 43 176 0
c gate 177 -24 -176 0
-24 -177 0
-176 -177 0
24 176 177 0
c gate 178 -15 -177 0
-15 -178 0
-177 -178 0
15 177 178 0
c gate 179 165 178 0
165 -179 0
178 -179 0
-165 -178 179 0
c gate 180 -166 177 0
-166 -180 0
177 -180 0
166 -177 180 0
c gate 181 -179 -180 0
-179 -181 0
-180 -181 0
179 180 181 0
c gate 182 -175 181 0
-175 -182 0
181 -182 0
175 -181 182 0
c gate 183 -174 -182 0
-174 -183 0
-182 -183 0
174 182 183 0
c gate 184 -140 -163 0
-140 -184 0
-163 -184 0
140 163 184 0
c gate 185 -139 -184 0
-139 -185 0
-184 -185 0
139 184 185 0
c gate 186 -183 185 0
-183 -186 0
185 -186 0
183 -185 186 0
c gate 187 174 182 0
174 -187 0
182 -187 0
-174 -182 187 0
c gate 188 165 -178 0
165 -188 0
-178 -188 0
-165 178 188 0
c gate 189 -169 -172 0
-169 -189 0
-172 -189 0
169 172 189 0
c gate 190 -188 -189 0
-188 -190 0
-189 -190 0
188 189 190 0
c gate 191 -187 -190 0
-187 -191 0
-190 -191 0
187 190 191 0
c gate 192 -186 191 0
-186 -192 0
191 -192 0
186 -191 192 0
c gate 193 -163 192 0
-163 -193 0
192 -193 0
163 -192 193 0
c gate 194 -146 -147 0
-146 -194 0
-147 -194 0
146 147 194 0
c gate 195 161 192 0
161 -195 0
192 -195 0
-161 -192 195 0
c gate 196 -75 -76 0
-75 -196 0
-76 -196 0
75 76 196 0
c gate 197 -159 -196 0
-159 -197 0
-196 -197 0
159 196 197 0
c gate 198 -152 -197 0
-152 -198 0
-197 -198 0
152 197 198 0
c gate 199 -153 -198 0
-153 -199 0
-198 -199 0
153 198 199 0
c gate 200 -192 199 0
-192 -200 0
199 -200 0
192 -199 200 0
c gate 201 -195 -200 0
-195 -201 0
-200 -201 0
195 200 201 0
c gate 202 194 -201 0
194 -202 0
-201 -202 0
-194 201 202 0
c gate 203 -146 -192 0
-146 -203 0
-192 -203 0
146 192 203 0
c gate 204 -202 203 0
-202 -204 0
203 -204 0
202 -203 204 0
c gate 205 -193 -204 0
-193 -205 0
-204 -205 0
193 204 205 0
c gate 206 141 -205 0
141 -206 0
-205 -206 0
-141 205 206 0
c gate 207 -141 205 0
-141 -207 0
205 -207 0
141 -205 207 0
c gate 208 -206 -207 0
-206 -208 0
-207 -208 0
206 207 208 0
c PO
208 0
